p edge 36 108
e 1 13
e 1 14
e 1 20
e 2 3
e 2 23
e 2 34
e 3 1
e 3 7
e 3 23
e 4 5
e 4 9
e 4 19
e 5 1
e 5 29
e 5 32
e 6 3
e 6 8
e 6 22
e 7 17
e 7 25
e 7 27
e 8 33
e 8 35
e 8 36
e 9 14
e 9 17
e 9 35
e 10 9
e 10 15
e 10 22
e 11 25
e 11 30
e 11 30
e 12 3
e 12 18
e 12 18
e 13 17
e 13 20
e 13 31
e 14 2
e 14 20
e 14 21
e 15 12
e 15 32
e 15 36
e 16 10
e 16 14
e 16 26
e 17 4
e 17 15
e 17 29
e 18 14
e 18 15
e 18 36
e 19 2
e 19 15
e 19 24
e 20 10
e 20 11
e 20 36
e 21 7
e 21 8
e 21 16
e 22 12
e 22 32
e 22 32
e 23 13
e 23 17
e 23 30
e 24 27
e 24 27
e 24 29
e 25 10
e 25 13
e 25 24
e 26 11
e 26 15
e 26 19
e 27 1
e 27 22
e 27 32
e 28 22
e 28 34
e 28 36
e 29 3
e 29 15
e 29 28
e 30 5
e 30 15
e 30 17
e 31 20
e 31 26
e 31 34
e 32 8
e 32 13
e 32 23
e 33 6
e 33 7
e 33 34
e 34 7
e 34 13
e 34 16
e 35 6
e 35 27
e 35 30
e 36 9
e 36 23
e 36 26
